p cnf 963 2472
51 -696 -1 0
-51 696 0
-51 1 0
52 -51 -3 0
-52 51 0
-52 3 0
53 -697 -698 0
-53 697 0
-53 698 0
54 -53 -6 0
-54 53 0
-54 6 0
55 -699 -700 0
-55 699 0
-55 700 0
56 -7 -697 0
-56 7 0
-56 697 0
57 -56 -8 0
-57 56 0
-57 8 0
58 -701 -55 0
-58 701 0
-58 55 0
59 -10 -9 0
-59 10 0
-59 9 0
60 -59 -702 0
-60 59 0
-60 702 0
61 -703 -58 0
-61 703 0
-61 58 0
62 -704 -705 0
-62 704 0
-62 705 0
63 -62 -706 0
-63 62 0
-63 706 0
64 -707 -61 0
-64 707 0
-64 61 0
65 -14 -7 0
-65 14 0
-65 7 0
66 -65 -15 0
-66 65 0
-66 15 0
67 -708 -64 0
-67 708 0
-67 64 0
68 -709 -6 0
-68 709 0
-68 6 0
69 -68 -710 0
-69 68 0
-69 710 0
70 -711 -67 0
-70 711 0
-70 67 0
71 -712 -698 0
-71 712 0
-71 698 0
72 -71 -18 0
-72 71 0
-72 18 0
73 -713 -70 0
-73 713 0
-73 70 0
74 -714 -18 0
-74 714 0
-74 18 0
75 -74 -20 0
-75 74 0
-75 20 0
76 -715 -73 0
-76 715 0
-76 73 0
77 -716 -21 0
-77 716 0
-77 21 0
78 -77 -18 0
-78 77 0
-78 18 0
79 -717 -76 0
-79 717 0
-79 76 0
80 -24 -23 0
-80 24 0
-80 23 0
81 -80 -3 0
-81 80 0
-81 3 0
82 -718 -79 0
-82 718 0
-82 79 0
83 -719 -22 0
-83 719 0
-83 22 0
84 -83 -720 0
-84 83 0
-84 720 0
85 -721 -82 0
-85 721 0
-85 82 0
86 -722 -10 0
-86 722 0
-86 10 0
87 -86 -720 0
-87 86 0
-87 720 0
88 -723 -85 0
-88 723 0
-88 85 0
89 -29 -724 0
-89 29 0
-89 724 0
90 -89 -18 0
-90 89 0
-90 18 0
91 -725 -88 0
-91 725 0
-91 88 0
92 -30 -716 0
-92 30 0
-92 716 0
93 -92 -19 0
-93 92 0
-93 19 0
94 -726 -91 0
-94 726 0
-94 91 0
95 -712 -705 0
-95 712 0
-95 705 0
96 -95 -31 0
-96 95 0
-96 31 0
97 -727 -94 0
-97 727 0
-97 94 0
98 -728 -729 0
-98 728 0
-98 729 0
99 -98 -2 0
-99 98 0
-99 2 0
100 -730 -97 0
-100 730 0
-100 97 0
101 -8 -7 0
-101 8 0
-101 7 0
102 -101 -731 0
-102 101 0
-102 731 0
103 -732 -100 0
-103 732 0
-103 100 0
104 -733 -27 0
-104 733 0
-104 27 0
105 -104 -734 0
-105 104 0
-105 734 0
106 -735 -103 0
-106 735 0
-106 103 0
107 -32 -736 0
-107 32 0
-107 736 0
108 -107 -33 0
-108 107 0
-108 33 0
109 -737 -106 0
-109 737 0
-109 106 0
110 -738 -36 0
-110 738 0
-110 36 0
111 -110 -706 0
-111 110 0
-111 706 0
112 -739 -109 0
-112 739 0
-112 109 0
113 -38 -3 0
-113 38 0
-113 3 0
114 -113 -740 0
-114 113 0
-114 740 0
115 -741 -112 0
-115 741 0
-115 112 0
116 -40 -28 0
-116 40 0
-116 28 0
117 -116 -18 0
-117 116 0
-117 18 0
118 -742 -115 0
-118 742 0
-118 115 0
119 -743 -744 0
-119 743 0
-119 744 0
120 -119 -745 0
-120 119 0
-120 745 0
121 -746 -118 0
-121 746 0
-121 118 0
122 -43 -747 0
-122 43 0
-122 747 0
123 -122 -704 0
-123 122 0
-123 704 0
124 -748 -121 0
-124 748 0
-124 121 0
125 -749 -736 0
-125 749 0
-125 736 0
126 -125 -37 0
-126 125 0
-126 37 0
127 -750 -124 0
-127 750 0
-127 124 0
128 -751 -743 0
-128 751 0
-128 743 0
129 -128 -35 0
-129 128 0
-129 35 0
130 -752 -127 0
-130 752 0
-130 127 0
131 -18 -753 0
-131 18 0
-131 753 0
132 -131 -754 0
-132 131 0
-132 754 0
133 -755 -130 0
-133 755 0
-133 130 0
134 -756 -757 0
-134 756 0
-134 757 0
135 -134 -29 0
-135 134 0
-135 29 0
136 -758 -133 0
-136 758 0
-136 133 0
137 -716 -705 0
-137 716 0
-137 705 0
138 -137 -19 0
-138 137 0
-138 19 0
139 -759 -136 0
-139 759 0
-139 136 0
140 -33 -23 0
-140 33 0
-140 23 0
141 -140 -710 0
-141 140 0
-141 710 0
142 -760 -139 0
-142 760 0
-142 139 0
143 -33 -1 0
-143 33 0
-143 1 0
144 -143 -761 0
-144 143 0
-144 761 0
145 -762 -142 0
-145 762 0
-145 142 0
146 -738 -763 0
-146 738 0
-146 763 0
147 -146 -764 0
-147 146 0
-147 764 0
148 -765 -145 0
-148 765 0
-148 145 0
149 -766 -13 0
-149 766 0
-149 13 0
150 -149 -710 0
-150 149 0
-150 710 0
151 -767 -148 0
-151 767 0
-151 148 0
152 -46 -743 0
-152 46 0
-152 743 0
153 -152 -31 0
-153 152 0
-153 31 0
154 -768 -151 0
-154 768 0
-154 151 0
155 -10 -2 0
-155 10 0
-155 2 0
156 -155 -13 0
-156 155 0
-156 13 0
157 -769 -154 0
-157 769 0
-157 154 0
158 -747 -37 0
-158 747 0
-158 37 0
159 -158 -17 0
-159 158 0
-159 17 0
160 -770 -157 0
-160 770 0
-160 157 0
161 -44 -25 0
-161 44 0
-161 25 0
162 -161 -41 0
-162 161 0
-162 41 0
163 -771 -160 0
-163 771 0
-163 160 0
164 -37 -2 0
-164 37 0
-164 2 0
165 -164 -22 0
-165 164 0
-165 22 0
166 -772 -163 0
-166 772 0
-166 163 0
167 -46 -756 0
-167 46 0
-167 756 0
168 -167 -12 0
-168 167 0
-168 12 0
169 -773 -166 0
-169 773 0
-169 166 0
170 -738 -714 0
-170 738 0
-170 714 0
171 -170 -20 0
-171 170 0
-171 20 0
172 -774 -169 0
-172 774 0
-172 169 0
173 -775 -9 0
-173 775 0
-173 9 0
174 -173 -731 0
-174 173 0
-174 731 0
175 -776 -172 0
-175 776 0
-175 172 0
176 -756 -731 0
-176 756 0
-176 731 0
177 -176 -17 0
-177 176 0
-177 17 0
178 -777 -175 0
-178 777 0
-178 175 0
179 -729 -12 0
-179 729 0
-179 12 0
180 -179 -17 0
-180 179 0
-180 17 0
181 -778 -178 0
-181 778 0
-181 178 0
182 -719 -757 0
-182 719 0
-182 757 0
183 -182 -31 0
-183 182 0
-183 31 0
184 -779 -181 0
-184 779 0
-184 181 0
185 -40 -4 0
-185 40 0
-185 4 0
186 -185 -780 0
-186 185 0
-186 780 0
187 -781 -184 0
-187 781 0
-187 184 0
188 -761 -698 0
-188 761 0
-188 698 0
189 -188 -26 0
-189 188 0
-189 26 0
190 -782 -187 0
-190 782 0
-190 187 0
191 -738 -697 0
-191 738 0
-191 697 0
192 -191 -734 0
-192 191 0
-192 734 0
193 -783 -190 0
-193 783 0
-193 190 0
194 -46 -728 0
-194 46 0
-194 728 0
195 -194 -734 0
-195 194 0
-195 734 0
196 -784 -193 0
-196 784 0
-196 193 0
197 -740 -763 0
-197 740 0
-197 763 0
198 -197 -20 0
-198 197 0
-198 20 0
199 -785 -196 0
-199 785 0
-199 196 0
200 -786 -23 0
-200 786 0
-200 23 0
201 -200 -720 0
-201 200 0
-201 720 0
202 -787 -199 0
-202 787 0
-202 199 0
203 -761 -731 0
-203 761 0
-203 731 0
204 -203 -704 0
-204 203 0
-204 704 0
205 -788 -202 0
-205 788 0
-205 202 0
206 -745 -28 0
-206 745 0
-206 28 0
207 -206 -20 0
-207 206 0
-207 20 0
208 -789 -205 0
-208 789 0
-208 205 0
209 -716 -7 0
-209 716 0
-209 7 0
210 -209 -720 0
-210 209 0
-210 720 0
211 -790 -208 0
-211 790 0
-211 208 0
212 -791 -30 0
-212 791 0
-212 30 0
213 -212 -13 0
-213 212 0
-213 13 0
214 -792 -211 0
-214 792 0
-214 211 0
215 -729 -22 0
-215 729 0
-215 22 0
216 -215 -793 0
-216 215 0
-216 793 0
217 -794 -214 0
-217 794 0
-217 214 0
218 -763 -696 0
-218 763 0
-218 696 0
219 -218 -745 0
-219 218 0
-219 745 0
220 -795 -217 0
-220 795 0
-220 217 0
221 -46 -4 0
-221 46 0
-221 4 0
222 -221 -39 0
-222 221 0
-222 39 0
223 -796 -220 0
-223 796 0
-223 220 0
224 -46 -729 0
-224 46 0
-224 729 0
225 -224 -43 0
-225 224 0
-225 43 0
226 -797 -223 0
-226 797 0
-226 223 0
227 -798 -729 0
-227 798 0
-227 729 0
228 -227 -766 0
-228 227 0
-228 766 0
229 -799 -226 0
-229 799 0
-229 226 0
230 -21 -702 0
-230 21 0
-230 702 0
231 -230 -26 0
-231 230 0
-231 26 0
232 -800 -229 0
-232 800 0
-232 229 0
233 -12 -2 0
-233 12 0
-233 2 0
234 -233 -740 0
-234 233 0
-234 740 0
235 -801 -232 0
-235 801 0
-235 232 0
236 -744 -7 0
-236 744 0
-236 7 0
237 -236 -716 0
-237 236 0
-237 716 0
238 -802 -235 0
-238 802 0
-238 235 0
239 -47 -803 0
-239 47 0
-239 803 0
240 -239 -39 0
-240 239 0
-240 39 0
241 -804 -238 0
-241 804 0
-241 238 0
242 -736 -8 0
-242 736 0
-242 8 0
243 -242 -740 0
-243 242 0
-243 740 0
244 -805 -241 0
-244 805 0
-244 241 0
245 -743 -10 0
-245 743 0
-245 10 0
246 -245 -704 0
-246 245 0
-246 704 0
247 -806 -244 0
-247 806 0
-247 244 0
248 -43 -736 0
-248 43 0
-248 736 0
249 -248 -731 0
-249 248 0
-249 731 0
250 -807 -247 0
-250 807 0
-250 247 0
251 -724 -6 0
-251 724 0
-251 6 0
252 -251 -13 0
-252 251 0
-252 13 0
253 -808 -250 0
-253 808 0
-253 250 0
254 -809 -23 0
-254 809 0
-254 23 0
255 -254 -810 0
-255 254 0
-255 810 0
256 -811 -253 0
-256 811 0
-256 253 0
257 -702 -10 0
-257 702 0
-257 10 0
258 -257 -754 0
-258 257 0
-258 754 0
259 -812 -256 0
-259 812 0
-259 256 0
260 -775 -19 0
-260 775 0
-260 19 0
261 -260 -704 0
-261 260 0
-261 704 0
262 -813 -259 0
-262 813 0
-262 259 0
263 -43 -35 0
-263 43 0
-263 35 0
264 -263 -11 0
-264 263 0
-264 11 0
265 -814 -262 0
-265 814 0
-265 262 0
266 -44 -763 0
-266 44 0
-266 763 0
267 -266 -815 0
-267 266 0
-267 815 0
268 -816 -265 0
-268 816 0
-268 265 0
269 -775 -14 0
-269 775 0
-269 14 0
270 -269 -738 0
-270 269 0
-270 738 0
271 -817 -268 0
-271 817 0
-271 268 0
272 -37 -775 0
-272 37 0
-272 775 0
273 -272 -29 0
-273 272 0
-273 29 0
274 -818 -271 0
-274 818 0
-274 271 0
275 -791 -716 0
-275 791 0
-275 716 0
276 -275 -49 0
-276 275 0
-276 49 0
277 -819 -274 0
-277 819 0
-277 274 0
278 -5 -4 0
-278 5 0
-278 4 0
279 -278 -705 0
-279 278 0
-279 705 0
280 -820 -277 0
-280 820 0
-280 277 0
281 -775 -749 0
-281 775 0
-281 749 0
282 -281 -740 0
-282 281 0
-282 740 0
283 -821 -280 0
-283 821 0
-283 280 0
284 -705 -4 0
-284 705 0
-284 4 0
285 -284 -706 0
-285 284 0
-285 706 0
286 -822 -283 0
-286 822 0
-286 283 0
287 -47 -714 0
-287 47 0
-287 714 0
288 -287 -706 0
-288 287 0
-288 706 0
289 -823 -286 0
-289 823 0
-289 286 0
290 -125 -18 0
-290 125 0
-290 18 0
291 -824 -289 0
-291 824 0
-291 289 0
292 -27 -3 0
-292 27 0
-292 3 0
293 -292 -17 0
-293 292 0
-293 17 0
294 -825 -291 0
-294 825 0
-294 291 0
295 -44 -698 0
-295 44 0
-295 698 0
296 -295 -724 0
-296 295 0
-296 724 0
297 -826 -294 0
-297 826 0
-297 294 0
298 -775 -4 0
-298 775 0
-298 4 0
299 -298 -8 0
-299 298 0
-299 8 0
300 -827 -297 0
-300 827 0
-300 297 0
301 -38 -720 0
-301 38 0
-301 720 0
302 -301 -704 0
-302 301 0
-302 704 0
303 -828 -300 0
-303 828 0
-303 300 0
304 -786 -749 0
-304 786 0
-304 749 0
305 -304 -8 0
-305 304 0
-305 8 0
306 -829 -303 0
-306 829 0
-306 303 0
307 -738 -728 0
-307 738 0
-307 728 0
308 -307 -17 0
-308 307 0
-308 17 0
309 -830 -306 0
-309 830 0
-309 306 0
310 -16 -4 0
-310 16 0
-310 4 0
311 -310 -702 0
-311 310 0
-311 702 0
312 -831 -309 0
-312 831 0
-312 309 0
313 -729 -757 0
-313 729 0
-313 757 0
314 -313 -810 0
-314 313 0
-314 810 0
315 -832 -312 0
-315 832 0
-315 312 0
316 -44 -749 0
-316 44 0
-316 749 0
317 -316 -9 0
-317 316 0
-317 9 0
318 -833 -315 0
-318 833 0
-318 315 0
319 -791 -733 0
-319 791 0
-319 733 0
320 -319 -31 0
-320 319 0
-320 31 0
321 -834 -318 0
-321 834 0
-321 318 0
322 -46 -724 0
-322 46 0
-322 724 0
323 -322 -731 0
-323 322 0
-323 731 0
324 -835 -321 0
-324 835 0
-324 321 0
325 -37 -749 0
-325 37 0
-325 749 0
326 -325 -810 0
-326 325 0
-326 810 0
327 -836 -324 0
-327 836 0
-327 324 0
328 -749 -19 0
-328 749 0
-328 19 0
329 -328 -764 0
-329 328 0
-329 764 0
330 -837 -327 0
-330 837 0
-330 327 0
331 -724 -757 0
-331 724 0
-331 757 0
332 -331 -753 0
-332 331 0
-332 753 0
333 -838 -330 0
-333 838 0
-333 330 0
334 -46 -10 0
-334 46 0
-334 10 0
335 -334 -37 0
-335 334 0
-335 37 0
336 -839 -333 0
-336 839 0
-336 333 0
337 -35 -1 0
-337 35 0
-337 1 0
338 -337 -30 0
-338 337 0
-338 30 0
339 -840 -336 0
-339 840 0
-339 336 0
340 -22 -702 0
-340 22 0
-340 702 0
341 -340 -754 0
-341 340 0
-341 754 0
342 -841 -339 0
-342 841 0
-342 339 0
343 -749 -763 0
-343 749 0
-343 763 0
344 -343 -29 0
-344 343 0
-344 29 0
345 -842 -342 0
-345 842 0
-345 342 0
346 -46 -38 0
-346 46 0
-346 38 0
347 -346 -754 0
-347 346 0
-347 754 0
348 -843 -345 0
-348 843 0
-348 345 0
349 -720 -810 0
-349 720 0
-349 810 0
350 -349 -754 0
-350 349 0
-350 754 0
351 -844 -348 0
-351 844 0
-351 348 0
352 -19 -712 0
-352 19 0
-352 712 0
353 -352 -17 0
-353 352 0
-353 17 0
354 -845 -351 0
-354 845 0
-354 351 0
355 -724 -763 0
-355 724 0
-355 763 0
356 -355 -696 0
-356 355 0
-356 696 0
357 -846 -354 0
-357 846 0
-357 354 0
358 -791 -21 0
-358 791 0
-358 21 0
359 -358 -26 0
-359 358 0
-359 26 0
360 -847 -357 0
-360 847 0
-360 357 0
361 -47 -9 0
-361 47 0
-361 9 0
362 -361 -716 0
-362 361 0
-362 716 0
363 -848 -360 0
-363 848 0
-363 360 0
364 -775 -33 0
-364 775 0
-364 33 0
365 -364 -710 0
-365 364 0
-365 710 0
366 -849 -363 0
-366 849 0
-366 363 0
367 -28 -696 0
-367 28 0
-367 696 0
368 -367 -19 0
-368 367 0
-368 19 0
369 -850 -366 0
-369 850 0
-369 366 0
370 -32 -809 0
-370 32 0
-370 809 0
371 -370 -31 0
-371 370 0
-371 31 0
372 -851 -369 0
-372 851 0
-372 369 0
373 -40 -7 0
-373 40 0
-373 7 0
374 -373 -8 0
-374 373 0
-374 8 0
375 -852 -372 0
-375 852 0
-375 372 0
376 -48 -23 0
-376 48 0
-376 23 0
377 -376 -16 0
-377 376 0
-377 16 0
378 -853 -375 0
-378 853 0
-378 375 0
379 -47 -698 0
-379 47 0
-379 698 0
380 -379 -43 0
-380 379 0
-380 43 0
381 -854 -378 0
-381 854 0
-381 378 0
382 -7 -4 0
-382 7 0
-382 4 0
383 -382 -756 0
-383 382 0
-383 756 0
384 -855 -381 0
-384 855 0
-384 381 0
385 -786 -38 0
-385 786 0
-385 38 0
386 -385 -18 0
-386 385 0
-386 18 0
387 -856 -384 0
-387 856 0
-387 384 0
388 -857 -751 0
-388 857 0
-388 751 0
389 -388 -49 0
-389 388 0
-389 49 0
390 -858 -387 0
-390 858 0
-390 387 0
391 -27 -4 0
-391 27 0
-391 4 0
392 -391 -14 0
-392 391 0
-392 14 0
393 -859 -390 0
-393 859 0
-393 390 0
394 -798 -24 0
-394 798 0
-394 24 0
395 -394 -731 0
-395 394 0
-395 731 0
396 -860 -393 0
-396 860 0
-396 393 0
397 -733 -763 0
-397 733 0
-397 763 0
398 -397 -15 0
-398 397 0
-398 15 0
399 -861 -396 0
-399 861 0
-399 396 0
400 -25 -22 0
-400 25 0
-400 22 0
401 -400 -18 0
-401 400 0
-401 18 0
402 -862 -399 0
-402 862 0
-402 399 0
403 -33 -722 0
-403 33 0
-403 722 0
404 -403 -705 0
-404 403 0
-404 705 0
405 -863 -402 0
-405 863 0
-405 402 0
406 -757 -744 0
-406 757 0
-406 744 0
407 -406 -30 0
-407 406 0
-407 30 0
408 -864 -405 0
-408 864 0
-408 405 0
409 -16 -705 0
-409 16 0
-409 705 0
410 -409 -37 0
-410 409 0
-410 37 0
411 -865 -408 0
-411 865 0
-411 408 0
412 -798 -16 0
-412 798 0
-412 16 0
413 -412 -3 0
-413 412 0
-413 3 0
414 -866 -411 0
-414 866 0
-414 411 0
415 -738 -719 0
-415 738 0
-415 719 0
416 -415 -49 0
-416 415 0
-416 49 0
417 -867 -414 0
-417 867 0
-417 414 0
418 -14 -5 0
-418 14 0
-418 5 0
419 -418 -33 0
-419 418 0
-419 33 0
420 -868 -417 0
-420 868 0
-420 417 0
421 -780 -21 0
-421 780 0
-421 21 0
422 -421 -710 0
-422 421 0
-422 710 0
423 -869 -420 0
-423 869 0
-423 420 0
424 -42 -1 0
-424 42 0
-424 1 0
425 -424 -731 0
-425 424 0
-425 731 0
426 -870 -423 0
-426 870 0
-426 423 0
427 -775 -734 0
-427 775 0
-427 734 0
428 -427 -716 0
-428 427 0
-428 716 0
429 -871 -426 0
-429 871 0
-429 426 0
430 -48 -24 0
-430 48 0
-430 24 0
431 -430 -815 0
-431 430 0
-431 815 0
432 -872 -429 0
-432 872 0
-432 429 0
433 -44 -27 0
-433 44 0
-433 27 0
434 -433 -780 0
-434 433 0
-434 780 0
435 -873 -432 0
-435 873 0
-435 432 0
436 -48 -786 0
-436 48 0
-436 786 0
437 -436 -709 0
-437 436 0
-437 709 0
438 -874 -435 0
-438 874 0
-438 435 0
439 -46 -704 0
-439 46 0
-439 704 0
440 -439 -49 0
-440 439 0
-440 49 0
441 -875 -438 0
-441 875 0
-441 438 0
442 -751 -36 0
-442 751 0
-442 36 0
443 -442 -24 0
-443 442 0
-443 24 0
444 -876 -441 0
-444 876 0
-444 441 0
445 -221 -706 0
-445 221 0
-445 706 0
446 -877 -444 0
-446 877 0
-446 444 0
447 -32 -757 0
-447 32 0
-447 757 0
448 -447 -710 0
-448 447 0
-448 710 0
449 -878 -446 0
-449 878 0
-449 446 0
450 -722 -709 0
-450 722 0
-450 709 0
451 -450 -702 0
-451 450 0
-451 702 0
452 -879 -449 0
-452 879 0
-452 449 0
453 -780 -4 0
-453 780 0
-453 4 0
454 -453 -766 0
-454 453 0
-454 766 0
455 -880 -452 0
-455 880 0
-455 452 0
456 -23 -9 0
-456 23 0
-456 9 0
457 -456 -46 0
-457 456 0
-457 46 0
458 -881 -455 0
-458 881 0
-458 455 0
459 -747 -8 0
-459 747 0
-459 8 0
460 -459 -29 0
-460 459 0
-460 29 0
461 -882 -458 0
-461 882 0
-461 458 0
462 -24 -749 0
-462 24 0
-462 749 0
463 -462 -738 0
-463 462 0
-463 738 0
464 -883 -461 0
-464 883 0
-464 461 0
465 -786 -25 0
-465 786 0
-465 25 0
466 -465 -16 0
-466 465 0
-466 16 0
467 -884 -464 0
-467 884 0
-467 464 0
468 -724 -4 0
-468 724 0
-468 4 0
469 -468 -716 0
-469 468 0
-469 716 0
470 -885 -467 0
-470 885 0
-470 467 0
471 -719 -705 0
-471 719 0
-471 705 0
472 -471 -744 0
-472 471 0
-472 744 0
473 -886 -470 0
-473 886 0
-473 470 0
474 -39 -13 0
-474 39 0
-474 13 0
475 -474 -710 0
-475 474 0
-475 710 0
476 -887 -473 0
-476 887 0
-476 473 0
477 -733 -25 0
-477 733 0
-477 25 0
478 -477 -731 0
-478 477 0
-478 731 0
479 -888 -476 0
-479 888 0
-479 476 0
480 -35 -2 0
-480 35 0
-480 2 0
481 -480 -31 0
-481 480 0
-481 31 0
482 -889 -479 0
-482 889 0
-482 479 0
483 -36 -763 0
-483 36 0
-483 763 0
484 -483 -738 0
-484 483 0
-484 738 0
485 -890 -482 0
-485 890 0
-485 482 0
486 -751 -19 0
-486 751 0
-486 19 0
487 -486 -766 0
-487 486 0
-487 766 0
488 -891 -485 0
-488 891 0
-488 485 0
489 -50 -5 0
-489 50 0
-489 5 0
490 -489 -745 0
-490 489 0
-490 745 0
491 -892 -488 0
-491 892 0
-491 488 0
492 -743 -22 0
-492 743 0
-492 22 0
493 -492 -793 0
-493 492 0
-493 793 0
494 -893 -491 0
-494 893 0
-494 491 0
495 -33 -744 0
-495 33 0
-495 744 0
496 -495 -15 0
-496 495 0
-496 15 0
497 -894 -494 0
-497 894 0
-497 494 0
498 -25 -1 0
-498 25 0
-498 1 0
499 -498 -6 0
-499 498 0
-499 6 0
500 -895 -497 0
-500 895 0
-500 497 0
501 -42 -753 0
-501 42 0
-501 753 0
502 -501 -43 0
-502 501 0
-502 43 0
503 -896 -500 0
-503 896 0
-503 500 0
504 -45 -704 0
-504 45 0
-504 704 0
505 -504 -39 0
-505 504 0
-505 39 0
506 -897 -503 0
-506 897 0
-506 503 0
507 -21 -709 0
-507 21 0
-507 709 0
508 -507 -12 0
-508 507 0
-508 12 0
509 -898 -506 0
-509 898 0
-509 506 0
510 -19 -744 0
-510 19 0
-510 744 0
511 -510 -704 0
-511 510 0
-511 704 0
512 -899 -509 0
-512 899 0
-512 509 0
513 -36 -720 0
-513 36 0
-513 720 0
514 -513 -706 0
-514 513 0
-514 706 0
515 -900 -512 0
-515 900 0
-515 512 0
516 -798 -38 0
-516 798 0
-516 38 0
517 -516 -731 0
-517 516 0
-517 731 0
518 -901 -515 0
-518 901 0
-518 515 0
519 -751 -753 0
-519 751 0
-519 753 0
520 -519 -35 0
-520 519 0
-520 35 0
521 -902 -518 0
-521 902 0
-521 518 0
522 -376 -13 0
-522 376 0
-522 13 0
523 -903 -521 0
-523 903 0
-523 521 0
524 -42 -34 0
-524 42 0
-524 34 0
525 -524 -743 0
-525 524 0
-525 743 0
526 -904 -523 0
-526 904 0
-526 523 0
527 -743 -12 0
-527 743 0
-527 12 0
528 -527 -740 0
-528 527 0
-528 740 0
529 -905 -526 0
-529 905 0
-529 526 0
530 -906 -38 0
-530 906 0
-530 38 0
531 -530 -731 0
-531 530 0
-531 731 0
532 -907 -529 0
-532 907 0
-532 529 0
533 -483 -731 0
-533 483 0
-533 731 0
534 -908 -532 0
-534 908 0
-534 532 0
535 -743 -775 0
-535 743 0
-535 775 0
536 -535 -11 0
-536 535 0
-536 11 0
537 -909 -534 0
-537 909 0
-537 534 0
538 -906 -734 0
-538 906 0
-538 734 0
539 -538 -12 0
-539 538 0
-539 12 0
540 -910 -537 0
-540 910 0
-540 537 0
541 -30 -7 0
-541 30 0
-541 7 0
542 -541 -810 0
-542 541 0
-542 810 0
543 -911 -540 0
-543 911 0
-543 540 0
544 -41 -16 0
-544 41 0
-544 16 0
545 -544 -8 0
-545 544 0
-545 8 0
546 -912 -543 0
-546 912 0
-546 543 0
547 -747 -16 0
-547 747 0
-547 16 0
548 -547 -764 0
-548 547 0
-548 764 0
549 -913 -546 0
-549 913 0
-549 546 0
550 -218 -810 0
-550 218 0
-550 810 0
551 -914 -549 0
-551 914 0
-551 549 0
552 -733 -2 0
-552 733 0
-552 2 0
553 -552 -8 0
-553 552 0
-553 8 0
554 -915 -551 0
-554 915 0
-554 551 0
555 -906 -5 0
-555 906 0
-555 5 0
556 -555 -19 0
-556 555 0
-556 19 0
557 -916 -554 0
-557 916 0
-557 554 0
558 -743 -9 0
-558 743 0
-558 9 0
559 -558 -716 0
-559 558 0
-559 716 0
560 -917 -557 0
-560 917 0
-560 557 0
561 -24 -753 0
-561 24 0
-561 753 0
562 -561 -702 0
-562 561 0
-562 702 0
563 -918 -560 0
-563 918 0
-563 560 0
564 -30 -720 0
-564 30 0
-564 720 0
565 -564 -49 0
-565 564 0
-565 49 0
566 -919 -563 0
-566 919 0
-566 563 0
567 -712 -4 0
-567 712 0
-567 4 0
568 -567 -747 0
-568 567 0
-568 747 0
569 -920 -566 0
-569 920 0
-569 566 0
570 -40 -761 0
-570 40 0
-570 761 0
571 -570 -49 0
-571 570 0
-571 49 0
572 -921 -569 0
-572 921 0
-572 569 0
573 -745 -763 0
-573 745 0
-573 763 0
574 -573 -13 0
-574 573 0
-574 13 0
575 -922 -572 0
-575 922 0
-575 572 0
576 -786 -810 0
-576 786 0
-576 810 0
577 -576 -710 0
-577 576 0
-577 710 0
578 -923 -575 0
-578 923 0
-578 575 0
579 -49 -44 0
-579 49 0
-579 44 0
580 -579 -13 0
-580 579 0
-580 13 0
581 -924 -578 0
-581 924 0
-581 578 0
582 -50 -30 0
-582 50 0
-582 30 0
583 -582 -793 0
-583 582 0
-583 793 0
584 -925 -581 0
-584 925 0
-584 581 0
585 -185 -803 0
-585 185 0
-585 803 0
586 -926 -584 0
-586 926 0
-586 584 0
587 -698 -696 0
-587 698 0
-587 696 0
588 -587 -702 0
-588 587 0
-588 702 0
589 -927 -586 0
-589 927 0
-589 586 0
590 -729 -763 0
-590 729 0
-590 763 0
591 -590 -857 0
-591 590 0
-591 857 0
592 -928 -589 0
-592 928 0
-592 589 0
593 -38 -706 0
-593 38 0
-593 706 0
594 -593 -31 0
-594 593 0
-594 31 0
595 -929 -592 0
-595 929 0
-595 592 0
596 -780 -716 0
-596 780 0
-596 716 0
597 -596 -754 0
-597 596 0
-597 754 0
598 -930 -595 0
-598 930 0
-598 595 0
599 -906 -30 0
-599 906 0
-599 30 0
600 -599 -793 0
-600 599 0
-600 793 0
601 -931 -598 0
-601 931 0
-601 598 0
602 -720 -763 0
-602 720 0
-602 763 0
603 -602 -731 0
-603 602 0
-603 731 0
604 -932 -601 0
-604 932 0
-604 601 0
605 -47 -16 0
-605 47 0
-605 16 0
606 -605 -43 0
-606 605 0
-606 43 0
607 -933 -604 0
-607 933 0
-607 604 0
608 -27 -6 0
-608 27 0
-608 6 0
609 -608 -49 0
-609 608 0
-609 49 0
610 -934 -607 0
-610 934 0
-610 607 0
611 -798 -763 0
-611 798 0
-611 763 0
612 -611 -49 0
-612 611 0
-612 49 0
613 -935 -610 0
-613 935 0
-613 610 0
614 -751 -26 0
-614 751 0
-614 26 0
615 -614 -706 0
-615 614 0
-615 706 0
616 -936 -613 0
-616 936 0
-616 613 0
617 -857 -720 0
-617 857 0
-617 720 0
618 -617 -731 0
-618 617 0
-618 731 0
619 -937 -616 0
-619 937 0
-619 616 0
620 -45 -720 0
-620 45 0
-620 720 0
621 -620 -39 0
-621 620 0
-621 39 0
622 -938 -619 0
-622 938 0
-622 619 0
623 -30 -793 0
-623 30 0
-623 793 0
624 -623 -45 0
-624 623 0
-624 45 0
625 -939 -622 0
-625 939 0
-625 622 0
626 -27 -16 0
-626 27 0
-626 16 0
627 -626 -29 0
-627 626 0
-627 29 0
628 -940 -625 0
-628 940 0
-628 625 0
629 -728 -12 0
-629 728 0
-629 12 0
630 -629 -764 0
-630 629 0
-630 764 0
631 -941 -628 0
-631 941 0
-631 628 0
632 -9 -753 0
-632 9 0
-632 753 0
633 -632 -716 0
-633 632 0
-633 716 0
634 -942 -631 0
-634 942 0
-634 631 0
635 -48 -5 0
-635 48 0
-635 5 0
636 -635 -728 0
-636 635 0
-636 728 0
637 -943 -634 0
-637 943 0
-637 634 0
638 -712 -2 0
-638 712 0
-638 2 0
639 -638 -716 0
-639 638 0
-639 716 0
640 -944 -637 0
-640 944 0
-640 637 0
641 -803 -810 0
-641 803 0
-641 810 0
642 -641 -26 0
-642 641 0
-642 26 0
643 -945 -640 0
-643 945 0
-643 640 0
644 -32 -11 0
-644 32 0
-644 11 0
645 -644 -714 0
-645 644 0
-645 714 0
646 -946 -643 0
-646 946 0
-646 643 0
647 -786 -27 0
-647 786 0
-647 27 0
648 -647 -719 0
-648 647 0
-648 719 0
649 -947 -646 0
-649 947 0
-649 646 0
650 -815 -747 0
-650 815 0
-650 747 0
651 -650 -13 0
-651 650 0
-651 13 0
652 -948 -649 0
-652 948 0
-652 649 0
653 -798 -696 0
-653 798 0
-653 696 0
654 -653 -31 0
-654 653 0
-654 31 0
655 -949 -652 0
-655 949 0
-655 652 0
656 -729 -722 0
-656 729 0
-656 722 0
657 -656 -20 0
-657 656 0
-657 20 0
658 -950 -655 0
-658 950 0
-658 655 0
659 -11 -7 0
-659 11 0
-659 7 0
660 -659 -810 0
-660 659 0
-660 810 0
661 -951 -658 0
-661 951 0
-661 658 0
662 -745 -696 0
-662 745 0
-662 696 0
663 -662 -740 0
-663 662 0
-663 740 0
664 -952 -661 0
-664 952 0
-664 661 0
665 -71 -1 0
-665 71 0
-665 1 0
666 -953 -664 0
-666 953 0
-666 664 0
667 -41 -38 0
-667 41 0
-667 38 0
668 -667 -745 0
-668 667 0
-668 745 0
669 -954 -666 0
-669 954 0
-669 666 0
670 -751 -756 0
-670 751 0
-670 756 0
671 -670 -810 0
-671 670 0
-671 810 0
672 -955 -669 0
-672 955 0
-672 669 0
673 -740 -719 0
-673 740 0
-673 719 0
674 -673 -710 0
-674 673 0
-674 710 0
675 -956 -672 0
-675 956 0
-675 672 0
676 -733 -729 0
-676 733 0
-676 729 0
677 -676 -740 0
-677 676 0
-677 740 0
678 -957 -675 0
-678 957 0
-678 675 0
679 -48 -1 0
-679 48 0
-679 1 0
680 -679 -49 0
-680 679 0
-680 49 0
681 -958 -678 0
-681 958 0
-681 678 0
682 -48 -751 0
-682 48 0
-682 751 0
683 -682 -803 0
-683 682 0
-683 803 0
684 -959 -681 0
-684 959 0
-684 681 0
685 -38 -757 0
-685 38 0
-685 757 0
686 -685 -736 0
-686 685 0
-686 736 0
687 -960 -684 0
-687 960 0
-687 684 0
688 -611 -47 0
-688 611 0
-688 47 0
689 -961 -687 0
-689 961 0
-689 687 0
690 -36 -29 0
-690 36 0
-690 29 0
691 -690 -704 0
-691 690 0
-691 704 0
692 -962 -689 0
-692 962 0
-692 689 0
693 -10 -1 0
-693 10 0
-693 1 0
694 -693 -744 0
-694 693 0
-694 744 0
695 -963 -692 0
-695 963 0
-695 692 0
-696 -2 0
696 2 0
-697 -5 0
697 5 0
-698 -4 0
698 4 0
-699 -54 0
699 54 0
-700 -52 0
700 52 0
-701 -57 0
701 57 0
-702 -11 0
702 11 0
-703 -60 0
703 60 0
-704 -12 0
704 12 0
-705 -6 0
705 6 0
-706 -13 0
706 13 0
-707 -63 0
707 63 0
-708 -66 0
708 66 0
-709 -16 0
709 16 0
-710 -17 0
710 17 0
-711 -69 0
711 69 0
-712 -14 0
712 14 0
-713 -72 0
713 72 0
-714 -19 0
714 19 0
-715 -75 0
715 75 0
-716 -22 0
716 22 0
-717 -78 0
717 78 0
-718 -81 0
718 81 0
-719 -25 0
719 25 0
-720 -26 0
720 26 0
-721 -84 0
721 84 0
-722 -27 0
722 27 0
-723 -87 0
723 87 0
-724 -28 0
724 28 0
-725 -90 0
725 90 0
-726 -93 0
726 93 0
-727 -96 0
727 96 0
-728 -33 0
728 33 0
-729 -32 0
729 32 0
-730 -99 0
730 99 0
-731 -15 0
731 15 0
-732 -102 0
732 102 0
-733 -34 0
733 34 0
-734 -35 0
734 35 0
-735 -105 0
735 105 0
-736 -10 0
736 10 0
-737 -108 0
737 108 0
-738 -37 0
738 37 0
-739 -111 0
739 111 0
-740 -39 0
740 39 0
-741 -114 0
741 114 0
-742 -117 0
742 117 0
-743 -41 0
743 41 0
-744 -8 0
744 8 0
-745 -29 0
745 29 0
-746 -120 0
746 120 0
-747 -42 0
747 42 0
-748 -123 0
748 123 0
-749 -23 0
749 23 0
-750 -126 0
750 126 0
-751 -44 0
751 44 0
-752 -129 0
752 129 0
-753 -1 0
753 1 0
-754 -20 0
754 20 0
-755 -132 0
755 132 0
-756 -30 0
756 30 0
-757 -9 0
757 9 0
-758 -135 0
758 135 0
-759 -138 0
759 138 0
-760 -141 0
760 141 0
-761 -21 0
761 21 0
-762 -144 0
762 144 0
-763 -7 0
763 7 0
-764 -31 0
764 31 0
-765 -147 0
765 147 0
-766 -45 0
766 45 0
-767 -150 0
767 150 0
-768 -153 0
768 153 0
-769 -156 0
769 156 0
-770 -159 0
770 159 0
-771 -162 0
771 162 0
-772 -165 0
772 165 0
-773 -168 0
773 168 0
-774 -171 0
774 171 0
-775 -36 0
775 36 0
-776 -174 0
776 174 0
-777 -177 0
777 177 0
-778 -180 0
778 180 0
-779 -183 0
779 183 0
-780 -47 0
780 47 0
-781 -186 0
781 186 0
-782 -189 0
782 189 0
-783 -192 0
783 192 0
-784 -195 0
784 195 0
-785 -198 0
785 198 0
-786 -40 0
786 40 0
-787 -201 0
787 201 0
-788 -204 0
788 204 0
-789 -207 0
789 207 0
-790 -210 0
790 210 0
-791 -38 0
791 38 0
-792 -213 0
792 213 0
-793 -18 0
793 18 0
-794 -216 0
794 216 0
-795 -219 0
795 219 0
-796 -222 0
796 222 0
-797 -225 0
797 225 0
-798 -48 0
798 48 0
-799 -228 0
799 228 0
-800 -231 0
800 231 0
-801 -234 0
801 234 0
-802 -237 0
802 237 0
-803 -43 0
803 43 0
-804 -240 0
804 240 0
-805 -243 0
805 243 0
-806 -246 0
806 246 0
-807 -249 0
807 249 0
-808 -252 0
808 252 0
-809 -24 0
809 24 0
-810 -3 0
810 3 0
-811 -255 0
811 255 0
-812 -258 0
812 258 0
-813 -261 0
813 261 0
-814 -264 0
814 264 0
-815 -49 0
815 49 0
-816 -267 0
816 267 0
-817 -270 0
817 270 0
-818 -273 0
818 273 0
-819 -276 0
819 276 0
-820 -279 0
820 279 0
-821 -282 0
821 282 0
-822 -285 0
822 285 0
-823 -288 0
823 288 0
-824 -290 0
824 290 0
-825 -293 0
825 293 0
-826 -296 0
826 296 0
-827 -299 0
827 299 0
-828 -302 0
828 302 0
-829 -305 0
829 305 0
-830 -308 0
830 308 0
-831 -311 0
831 311 0
-832 -314 0
832 314 0
-833 -317 0
833 317 0
-834 -320 0
834 320 0
-835 -323 0
835 323 0
-836 -326 0
836 326 0
-837 -329 0
837 329 0
-838 -332 0
838 332 0
-839 -335 0
839 335 0
-840 -338 0
840 338 0
-841 -341 0
841 341 0
-842 -344 0
842 344 0
-843 -347 0
843 347 0
-844 -350 0
844 350 0
-845 -353 0
845 353 0
-846 -356 0
846 356 0
-847 -359 0
847 359 0
-848 -362 0
848 362 0
-849 -365 0
849 365 0
-850 -368 0
850 368 0
-851 -371 0
851 371 0
-852 -374 0
852 374 0
-853 -377 0
853 377 0
-854 -380 0
854 380 0
-855 -383 0
855 383 0
-856 -386 0
856 386 0
-857 -50 0
857 50 0
-858 -389 0
858 389 0
-859 -392 0
859 392 0
-860 -395 0
860 395 0
-861 -398 0
861 398 0
-862 -401 0
862 401 0
-863 -404 0
863 404 0
-864 -407 0
864 407 0
-865 -410 0
865 410 0
-866 -413 0
866 413 0
-867 -416 0
867 416 0
-868 -419 0
868 419 0
-869 -422 0
869 422 0
-870 -425 0
870 425 0
-871 -428 0
871 428 0
-872 -431 0
872 431 0
-873 -434 0
873 434 0
-874 -437 0
874 437 0
-875 -440 0
875 440 0
-876 -443 0
876 443 0
-877 -445 0
877 445 0
-878 -448 0
878 448 0
-879 -451 0
879 451 0
-880 -454 0
880 454 0
-881 -457 0
881 457 0
-882 -460 0
882 460 0
-883 -463 0
883 463 0
-884 -466 0
884 466 0
-885 -469 0
885 469 0
-886 -472 0
886 472 0
-887 -475 0
887 475 0
-888 -478 0
888 478 0
-889 -481 0
889 481 0
-890 -484 0
890 484 0
-891 -487 0
891 487 0
-892 -490 0
892 490 0
-893 -493 0
893 493 0
-894 -496 0
894 496 0
-895 -499 0
895 499 0
-896 -502 0
896 502 0
-897 -505 0
897 505 0
-898 -508 0
898 508 0
-899 -511 0
899 511 0
-900 -514 0
900 514 0
-901 -517 0
901 517 0
-902 -520 0
902 520 0
-903 -522 0
903 522 0
-904 -525 0
904 525 0
-905 -528 0
905 528 0
-906 -46 0
906 46 0
-907 -531 0
907 531 0
-908 -533 0
908 533 0
-909 -536 0
909 536 0
-910 -539 0
910 539 0
-911 -542 0
911 542 0
-912 -545 0
912 545 0
-913 -548 0
913 548 0
-914 -550 0
914 550 0
-915 -553 0
915 553 0
-916 -556 0
916 556 0
-917 -559 0
917 559 0
-918 -562 0
918 562 0
-919 -565 0
919 565 0
-920 -568 0
920 568 0
-921 -571 0
921 571 0
-922 -574 0
922 574 0
-923 -577 0
923 577 0
-924 -580 0
924 580 0
-925 -583 0
925 583 0
-926 -585 0
926 585 0
-927 -588 0
927 588 0
-928 -591 0
928 591 0
-929 -594 0
929 594 0
-930 -597 0
930 597 0
-931 -600 0
931 600 0
-932 -603 0
932 603 0
-933 -606 0
933 606 0
-934 -609 0
934 609 0
-935 -612 0
935 612 0
-936 -615 0
936 615 0
-937 -618 0
937 618 0
-938 -621 0
938 621 0
-939 -624 0
939 624 0
-940 -627 0
940 627 0
-941 -630 0
941 630 0
-942 -633 0
942 633 0
-943 -636 0
943 636 0
-944 -639 0
944 639 0
-945 -642 0
945 642 0
-946 -645 0
946 645 0
-947 -648 0
947 648 0
-948 -651 0
948 651 0
-949 -654 0
949 654 0
-950 -657 0
950 657 0
-951 -660 0
951 660 0
-952 -663 0
952 663 0
-953 -665 0
953 665 0
-954 -668 0
954 668 0
-955 -671 0
955 671 0
-956 -674 0
956 674 0
-957 -677 0
957 677 0
-958 -680 0
958 680 0
-959 -683 0
959 683 0
-960 -686 0
960 686 0
-961 -688 0
961 688 0
-962 -691 0
962 691 0
-963 -694 0
963 694 0
695 0
